c Cardinality constraint <=k(x_1,...,x_n) for k = 4 and n = 4.
p cnf 16 23
-1 5 0
-6 0
-7 0
-8 0
-2 9 0
-5 9 0
-2 -5 10 0
-6 10 0
-2 -6 11 0
-7 11 0
-2 -7 12 0
-8 12 0
-2 -8 0
-3 13 0
-9 13 0
-3 -9 14 0
-10 14 0
-3 -10 15 0
-11 15 0
-3 -11 16 0
-12 16 0
-3 -12 0
-4 -16 0
